10 10 3

0 445 160 318 240 352 497 61 299 339 
494 0 115 237 102 93 266 278 170 214 
437 100 0 419 316 54 213 419 485 69 
287 369 442 0 241 69 101 58 259 404 
261 271 409 306 0 471 474 249 72 273 
466 56 149 179 200 0 407 304 222 411 
223 140 395 243 133 263 0 184 80 282 
235 296 248 345 56 225 460 0 69 195 
433 268 424 412 233 430 61 118 0 336 
418 129 58 84 302 355 429 495 195 0 

89.6 0 5
89.6 1 2
89.6 2 7
89.6 3 0
89.6 4 1
89.6 5 6
89.6 6 3
89.6 7 0
89.6 8 2
89.6 9 4

